39 39
23 12
4 9
5 1
29 3
34 14
14 11
39 2
11 3
33 5
28 7
24 8
10 16
6 18
27 10
16 7
36 1
31 5
30 12
21 17
19 2
2 19
32 15
22 4
17 14
9 6
20 9
38 6
18 17
1 11
3 8
35 13
13 18
25 13
15 19
8 4
12 16
7 15
26 20
37 10
